\ This file was automatically generated by Zimpl
\ param m := read DATAFILE as "1n" use 1;
\ do print "agents: ",m;
\ param n := read DATAFILE as "2n" use 1;
\ do print "jobs: ", n;
\ set M := {1..m};
\ set N := {1..n};
\ param l:=m*n;
\ do print "l=", l;
\ param w[M * N]:=read DATAFILE as "n+" skip 1 use l;
\ param p[M * N]:= read DATAFILE as "n+" skip (m+1) use l;
\ param c[M]:= read DATAFILE as "n+" skip (m+m+1) use m;
\ var x[M * N] binary;
\ maximize profit:  sum <i> in M : sum <j> in N: w[i,j] * x[i,j];
\ subto m_job:   forall <j> in N: sum <i> in M: x[i,j] == 1;
\ subto b_capa:  forall <i> in M: sum <j> in N: p[i,j]*x[i,j] <= c[i];
\Problem name: /opt/instances/lukas/problems/gap/gap-max.zpl
Maximize
 profit:  +16 x#1#1 +16 x#1#2 +13 x#1#3 +20 x#1#4 +22 x#1#5 +24 x#1#6
  +15 x#1#7 +25 x#1#8 +18 x#1#9 +25 x#1#10 +11 x#1#11 +19 x#1#12
  +20 x#1#13 +21 x#1#14 +17 x#1#15 +16 x#1#16 +16 x#1#17 +21 x#1#18
  +17 x#1#19 +13 x#1#20 +13 x#1#21 +17 x#1#22 +14 x#1#23 +12 x#1#24
  +24 x#1#25 +20 x#1#26 +15 x#1#27 +22 x#1#28 +15 x#1#29 +12 x#1#30
  +14 x#2#1 +15 x#2#2 +19 x#2#3 +16 x#2#4 +22 x#2#5 +18 x#2#6
  +13 x#2#7 +11 x#2#8 +21 x#2#9 +24 x#2#10 +14 x#2#11 +23 x#2#12
  +21 x#2#13 +20 x#2#14 +13 x#2#15 +11 x#2#16 +25 x#2#17 +19 x#2#18
  +21 x#2#19 +14 x#2#20 +18 x#2#21 +19 x#2#22 +15 x#2#23 +25 x#2#24
  +23 x#2#25 +17 x#2#26 +19 x#2#27 +15 x#2#28 +13 x#2#29 +25 x#2#30
  +25 x#3#1 +23 x#3#2 +19 x#3#3 +17 x#3#4 +11 x#3#5 +19 x#3#6
  +16 x#3#7 +25 x#3#8 +11 x#3#9 +23 x#3#10 +15 x#3#11 +17 x#3#12
  +21 x#3#13 +13 x#3#14 +18 x#3#15 +18 x#3#16 +22 x#3#17 +13 x#3#18
  +20 x#3#19 +23 x#3#20 +24 x#3#21 +16 x#3#22 +24 x#3#23 +16 x#3#24
  +23 x#3#25 +15 x#3#26 +10 x#3#27 +23 x#3#28 +23 x#3#29 +14 x#3#30
  +11 x#4#1 +16 x#4#2 +12 x#4#3 +16 x#4#4 +13 x#4#5 +11 x#4#6
  +18 x#4#7 +14 x#4#8 +21 x#4#9 +15 x#4#10 +11 x#4#11 +10 x#4#12
  +20 x#4#13 +13 x#4#14 +13 x#4#15 +17 x#4#16 +17 x#4#17 +13 x#4#18
  +17 x#4#19 +19 x#4#20 +20 x#4#21 +17 x#4#22 +14 x#4#23 +21 x#4#24
  +23 x#4#25 +17 x#4#26 +19 x#4#27 +18 x#4#28 +22 x#4#29 +12 x#4#30
  +18 x#5#1 +11 x#5#2 +24 x#5#3 +18 x#5#4 +13 x#5#5 +14 x#5#6
  +14 x#5#7 +14 x#5#8 +21 x#5#9 +19 x#5#10 +20 x#5#11 +25 x#5#12
  +22 x#5#13 +18 x#5#14 +24 x#5#15 +23 x#5#16 +21 x#5#17 +17 x#5#18
  +23 x#5#19 +23 x#5#20 +17 x#5#21 +20 x#5#22 +23 x#5#23 +24 x#5#24
  +19 x#5#25 +15 x#5#26 +15 x#5#27 +14 x#5#28 +24 x#5#29 +15 x#5#30

Subject to
 m_job_;1;:
  + x#5#1 + x#4#1 + x#3#1 + x#2#1 + x#1#1 = 1
 m_job_;2;:
  + x#5#2 + x#4#2 + x#3#2 + x#2#2 + x#1#2 = 1
 m_job_;3;:
  + x#5#3 + x#4#3 + x#3#3 + x#2#3 + x#1#3 = 1
 m_job_;4;:
  + x#5#4 + x#4#4 + x#3#4 + x#2#4 + x#1#4 = 1
 m_job_;5;:
  + x#5#5 + x#4#5 + x#3#5 + x#2#5 + x#1#5 = 1
 m_job_;6;:
  + x#5#6 + x#4#6 + x#3#6 + x#2#6 + x#1#6 = 1
 m_job_;7;:
  + x#5#7 + x#4#7 + x#3#7 + x#2#7 + x#1#7 = 1
 m_job_;8;:
  + x#5#8 + x#4#8 + x#3#8 + x#2#8 + x#1#8 = 1
 m_job_;9;:
  + x#5#9 + x#4#9 + x#3#9 + x#2#9 + x#1#9 = 1
 m_job_;10;:
  + x#5#10 + x#4#10 + x#3#10 + x#2#10 + x#1#10 = 1
 m_job_;11;:
  + x#5#11 + x#4#11 + x#3#11 + x#2#11 + x#1#11 = 1
 m_job_;12;:
  + x#5#12 + x#4#12 + x#3#12 + x#2#12 + x#1#12 = 1
 m_job_;13;:
  + x#5#13 + x#4#13 + x#3#13 + x#2#13 + x#1#13 = 1
 m_job_;14;:
  + x#5#14 + x#4#14 + x#3#14 + x#2#14 + x#1#14 = 1
 m_job_;15;:
  + x#5#15 + x#4#15 + x#3#15 + x#2#15 + x#1#15 = 1
 m_job_;16;:
  + x#5#16 + x#4#16 + x#3#16 + x#2#16 + x#1#16 = 1
 m_job_;17;:
  + x#5#17 + x#4#17 + x#3#17 + x#2#17 + x#1#17 = 1
 m_job_;18;:
  + x#5#18 + x#4#18 + x#3#18 + x#2#18 + x#1#18 = 1
 m_job_;19;:
  + x#5#19 + x#4#19 + x#3#19 + x#2#19 + x#1#19 = 1
 m_job_;20;:
  + x#5#20 + x#4#20 + x#3#20 + x#2#20 + x#1#20 = 1
 m_job_;21;:
  + x#5#21 + x#4#21 + x#3#21 + x#2#21 + x#1#21 = 1
 m_job_;22;:
  + x#5#22 + x#4#22 + x#3#22 + x#2#22 + x#1#22 = 1
 m_job_;23;:
  + x#5#23 + x#4#23 + x#3#23 + x#2#23 + x#1#23 = 1
 m_job_;24;:
  + x#5#24 + x#4#24 + x#3#24 + x#2#24 + x#1#24 = 1
 m_job_;25;:
  + x#5#25 + x#4#25 + x#3#25 + x#2#25 + x#1#25 = 1
 m_job_;26;:
  + x#5#26 + x#4#26 + x#3#26 + x#2#26 + x#1#26 = 1
 m_job_;27;:
  + x#5#27 + x#4#27 + x#3#27 + x#2#27 + x#1#27 = 1
 m_job_;28;:
  + x#5#28 + x#4#28 + x#3#28 + x#2#28 + x#1#28 = 1
 m_job_;29;:
  + x#5#29 + x#4#29 + x#3#29 + x#2#29 + x#1#29 = 1
 m_job_;30;:
  + x#5#30 + x#4#30 + x#3#30 + x#2#30 + x#1#30 = 1
 b_capa_;1;:
  +13 x#1#30 +22 x#1#29 +5 x#1#28 +19 x#1#27 +10 x#1#26 +18 x#1#25
  +14 x#1#24 +15 x#1#23 +24 x#1#22 +23 x#1#21 +7 x#1#20 +21 x#1#19
  +21 x#1#18 +19 x#1#17 +20 x#1#16 +21 x#1#15 +18 x#1#14 +11 x#1#13
  +9 x#1#12 +5 x#1#11 +15 x#1#10 +18 x#1#9 +17 x#1#8 +19 x#1#7
  +18 x#1#6 +22 x#1#5 +13 x#1#4 +9 x#1#3 +10 x#1#2 +7 x#1#1
  <= 76
 b_capa_;2;:
  +24 x#2#30 +10 x#2#29 +11 x#2#28 +20 x#2#27 +21 x#2#26 +10 x#2#25
  +20 x#2#24 +22 x#2#23 +24 x#2#22 +13 x#2#21 +18 x#2#20 +7 x#2#19
  +14 x#2#18 +7 x#2#17 +24 x#2#16 +7 x#2#15 +21 x#2#14 +16 x#2#13
  +6 x#2#12 +14 x#2#11 +13 x#2#10 +25 x#2#9 +14 x#2#8 +20 x#2#7
  +21 x#2#6 +15 x#2#5 +24 x#2#4 +12 x#2#3 +25 x#2#2 +24 x#2#1
  <= 80
 b_capa_;3;:
  +19 x#3#30 +12 x#3#29 +17 x#3#28 +24 x#3#27 +22 x#3#26 +13 x#3#25
  +12 x#3#24 +19 x#3#23 +16 x#3#22 +18 x#3#21 +7 x#3#20 +13 x#3#19
  +12 x#3#18 +15 x#3#17 +16 x#3#16 +24 x#3#15 +24 x#3#14 +16 x#3#13
  +14 x#3#12 +10 x#3#11 +18 x#3#10 +23 x#3#9 +25 x#3#8 +14 x#3#7
  +7 x#3#6 +16 x#3#5 +13 x#3#4 +7 x#3#3 +13 x#3#2 +12 x#3#1
  <= 75
 b_capa_;4;:
  +7 x#4#30 +24 x#4#29 +18 x#4#28 +15 x#4#27 +11 x#4#26 +19 x#4#25
  +17 x#4#24 +25 x#4#23 +20 x#4#22 +6 x#4#21 +5 x#4#20 +9 x#4#19
  +11 x#4#18 +6 x#4#17 +20 x#4#16 +9 x#4#15 +5 x#4#14 +14 x#4#13
  +10 x#4#12 +8 x#4#11 +22 x#4#10 +7 x#4#9 +6 x#4#8 +18 x#4#7
  +9 x#4#6 +16 x#4#5 +15 x#4#4 +7 x#4#3 +5 x#4#2 +19 x#4#1
  <= 62
 b_capa_;5;:
  +11 x#5#30 +6 x#5#29 +15 x#5#28 +15 x#5#27 +16 x#5#26 +7 x#5#25
  +19 x#5#24 +25 x#5#23 +18 x#5#22 +15 x#5#21 +20 x#5#20 +8 x#5#19
  +24 x#5#18 +17 x#5#17 +8 x#5#16 +18 x#5#15 +14 x#5#14 +12 x#5#13
  +21 x#5#12 +21 x#5#11 +19 x#5#10 +9 x#5#9 +6 x#5#8 +17 x#5#7
  +13 x#5#6 +11 x#5#5 +24 x#5#4 +13 x#5#3 +15 x#5#2 +10 x#5#1
  <= 72
Bounds
 0 <= x#1#1 <= 1
 0 <= x#1#2 <= 1
 0 <= x#1#3 <= 1
 0 <= x#1#4 <= 1
 0 <= x#1#5 <= 1
 0 <= x#1#6 <= 1
 0 <= x#1#7 <= 1
 0 <= x#1#8 <= 1
 0 <= x#1#9 <= 1
 0 <= x#1#10 <= 1
 0 <= x#1#11 <= 1
 0 <= x#1#12 <= 1
 0 <= x#1#13 <= 1
 0 <= x#1#14 <= 1
 0 <= x#1#15 <= 1
 0 <= x#1#16 <= 1
 0 <= x#1#17 <= 1
 0 <= x#1#18 <= 1
 0 <= x#1#19 <= 1
 0 <= x#1#20 <= 1
 0 <= x#1#21 <= 1
 0 <= x#1#22 <= 1
 0 <= x#1#23 <= 1
 0 <= x#1#24 <= 1
 0 <= x#1#25 <= 1
 0 <= x#1#26 <= 1
 0 <= x#1#27 <= 1
 0 <= x#1#28 <= 1
 0 <= x#1#29 <= 1
 0 <= x#1#30 <= 1
 0 <= x#2#1 <= 1
 0 <= x#2#2 <= 1
 0 <= x#2#3 <= 1
 0 <= x#2#4 <= 1
 0 <= x#2#5 <= 1
 0 <= x#2#6 <= 1
 0 <= x#2#7 <= 1
 0 <= x#2#8 <= 1
 0 <= x#2#9 <= 1
 0 <= x#2#10 <= 1
 0 <= x#2#11 <= 1
 0 <= x#2#12 <= 1
 0 <= x#2#13 <= 1
 0 <= x#2#14 <= 1
 0 <= x#2#15 <= 1
 0 <= x#2#16 <= 1
 0 <= x#2#17 <= 1
 0 <= x#2#18 <= 1
 0 <= x#2#19 <= 1
 0 <= x#2#20 <= 1
 0 <= x#2#21 <= 1
 0 <= x#2#22 <= 1
 0 <= x#2#23 <= 1
 0 <= x#2#24 <= 1
 0 <= x#2#25 <= 1
 0 <= x#2#26 <= 1
 0 <= x#2#27 <= 1
 0 <= x#2#28 <= 1
 0 <= x#2#29 <= 1
 0 <= x#2#30 <= 1
 0 <= x#3#1 <= 1
 0 <= x#3#2 <= 1
 0 <= x#3#3 <= 1
 0 <= x#3#4 <= 1
 0 <= x#3#5 <= 1
 0 <= x#3#6 <= 1
 0 <= x#3#7 <= 1
 0 <= x#3#8 <= 1
 0 <= x#3#9 <= 1
 0 <= x#3#10 <= 1
 0 <= x#3#11 <= 1
 0 <= x#3#12 <= 1
 0 <= x#3#13 <= 1
 0 <= x#3#14 <= 1
 0 <= x#3#15 <= 1
 0 <= x#3#16 <= 1
 0 <= x#3#17 <= 1
 0 <= x#3#18 <= 1
 0 <= x#3#19 <= 1
 0 <= x#3#20 <= 1
 0 <= x#3#21 <= 1
 0 <= x#3#22 <= 1
 0 <= x#3#23 <= 1
 0 <= x#3#24 <= 1
 0 <= x#3#25 <= 1
 0 <= x#3#26 <= 1
 0 <= x#3#27 <= 1
 0 <= x#3#28 <= 1
 0 <= x#3#29 <= 1
 0 <= x#3#30 <= 1
 0 <= x#4#1 <= 1
 0 <= x#4#2 <= 1
 0 <= x#4#3 <= 1
 0 <= x#4#4 <= 1
 0 <= x#4#5 <= 1
 0 <= x#4#6 <= 1
 0 <= x#4#7 <= 1
 0 <= x#4#8 <= 1
 0 <= x#4#9 <= 1
 0 <= x#4#10 <= 1
 0 <= x#4#11 <= 1
 0 <= x#4#12 <= 1
 0 <= x#4#13 <= 1
 0 <= x#4#14 <= 1
 0 <= x#4#15 <= 1
 0 <= x#4#16 <= 1
 0 <= x#4#17 <= 1
 0 <= x#4#18 <= 1
 0 <= x#4#19 <= 1
 0 <= x#4#20 <= 1
 0 <= x#4#21 <= 1
 0 <= x#4#22 <= 1
 0 <= x#4#23 <= 1
 0 <= x#4#24 <= 1
 0 <= x#4#25 <= 1
 0 <= x#4#26 <= 1
 0 <= x#4#27 <= 1
 0 <= x#4#28 <= 1
 0 <= x#4#29 <= 1
 0 <= x#4#30 <= 1
 0 <= x#5#1 <= 1
 0 <= x#5#2 <= 1
 0 <= x#5#3 <= 1
 0 <= x#5#4 <= 1
 0 <= x#5#5 <= 1
 0 <= x#5#6 <= 1
 0 <= x#5#7 <= 1
 0 <= x#5#8 <= 1
 0 <= x#5#9 <= 1
 0 <= x#5#10 <= 1
 0 <= x#5#11 <= 1
 0 <= x#5#12 <= 1
 0 <= x#5#13 <= 1
 0 <= x#5#14 <= 1
 0 <= x#5#15 <= 1
 0 <= x#5#16 <= 1
 0 <= x#5#17 <= 1
 0 <= x#5#18 <= 1
 0 <= x#5#19 <= 1
 0 <= x#5#20 <= 1
 0 <= x#5#21 <= 1
 0 <= x#5#22 <= 1
 0 <= x#5#23 <= 1
 0 <= x#5#24 <= 1
 0 <= x#5#25 <= 1
 0 <= x#5#26 <= 1
 0 <= x#5#27 <= 1
 0 <= x#5#28 <= 1
 0 <= x#5#29 <= 1
 0 <= x#5#30 <= 1
General
 x#1#1
 x#1#2
 x#1#3
 x#1#4
 x#1#5
 x#1#6
 x#1#7
 x#1#8
 x#1#9
 x#1#10
 x#1#11
 x#1#12
 x#1#13
 x#1#14
 x#1#15
 x#1#16
 x#1#17
 x#1#18
 x#1#19
 x#1#20
 x#1#21
 x#1#22
 x#1#23
 x#1#24
 x#1#25
 x#1#26
 x#1#27
 x#1#28
 x#1#29
 x#1#30
 x#2#1
 x#2#2
 x#2#3
 x#2#4
 x#2#5
 x#2#6
 x#2#7
 x#2#8
 x#2#9
 x#2#10
 x#2#11
 x#2#12
 x#2#13
 x#2#14
 x#2#15
 x#2#16
 x#2#17
 x#2#18
 x#2#19
 x#2#20
 x#2#21
 x#2#22
 x#2#23
 x#2#24
 x#2#25
 x#2#26
 x#2#27
 x#2#28
 x#2#29
 x#2#30
 x#3#1
 x#3#2
 x#3#3
 x#3#4
 x#3#5
 x#3#6
 x#3#7
 x#3#8
 x#3#9
 x#3#10
 x#3#11
 x#3#12
 x#3#13
 x#3#14
 x#3#15
 x#3#16
 x#3#17
 x#3#18
 x#3#19
 x#3#20
 x#3#21
 x#3#22
 x#3#23
 x#3#24
 x#3#25
 x#3#26
 x#3#27
 x#3#28
 x#3#29
 x#3#30
 x#4#1
 x#4#2
 x#4#3
 x#4#4
 x#4#5
 x#4#6
 x#4#7
 x#4#8
 x#4#9
 x#4#10
 x#4#11
 x#4#12
 x#4#13
 x#4#14
 x#4#15
 x#4#16
 x#4#17
 x#4#18
 x#4#19
 x#4#20
 x#4#21
 x#4#22
 x#4#23
 x#4#24
 x#4#25
 x#4#26
 x#4#27
 x#4#28
 x#4#29
 x#4#30
 x#5#1
 x#5#2
 x#5#3
 x#5#4
 x#5#5
 x#5#6
 x#5#7
 x#5#8
 x#5#9
 x#5#10
 x#5#11
 x#5#12
 x#5#13
 x#5#14
 x#5#15
 x#5#16
 x#5#17
 x#5#18
 x#5#19
 x#5#20
 x#5#21
 x#5#22
 x#5#23
 x#5#24
 x#5#25
 x#5#26
 x#5#27
 x#5#28
 x#5#29
 x#5#30
End
